SCIP version 5.0.0 [precision: 8 byte] [memory: block] [mode: optimized] [LP solver: NONE] [GitHash: 3bbd232]
Copyright (C) 2002-2017 Konrad-Zuse-Zentrum fuer Informationstechnik Berlin (ZIB)

External codes: 
  Readline EditLine w  GNU library for command line editing (gnu.org/s/readline)
  CppAD 20160000.1     Algorithmic Differentiation of C++ algorithms developed by B. Bell (www.coin-or.org/CppAD)
  ZLIB 1.2.5           General purpose compression library by J. Gailly and M. Adler (zlib.net)
  GMP 6.1.2            GNU Multiple Precision Arithmetic Library developed by T. Granlund (gmplib.org)

user parameter file <scip.set> not found - using default parameters

read problem <../../Split_data/output/biodeg/4/0_sample_biodeg.logreg>
============

File name	:	../../Split_data/output/biodeg/4/0_sample_biodeg.logreg
Problem name 	:	0_sample_biodeg
Number of data	:	844
Number of var	:	41
The given data has linear dependence
1 sets of column vector are linearly dependent:
{ 19}, 

[dim=1] time: 0.028813
[dim=2] time: 0.058261
[dim=3] time: 0.091427
[dim=4] time: 0.123815
[dim=5] time: 0.162833
[dim=6] time: 0.192295
[dim=7] time: 0.221704
[dim=8] time: 0.250031
[dim=9] time: 0.279454
[dim=10] time: 0.318085
[dim=11] time: 0.344987
[dim=12] time: 0.369938
[dim=13] time: 0.385402
[dim=14] time: 0.401458
[dim=15] time: 0.41727
[dim=16] time: 0.432213
[dim=17] time: 0.447277
[dim=18] time: 0.472698
[dim=19] time: 0.513552
[dim=20] time: 0.527844
[dim=21] time: 0.55456
[dim=22] Time of forward = 0.568651sec.
AIC: 515.748
k: 21

[dim=40] time: 0.159512
[dim=39] time: 0.247648
[dim=38] time: 0.311989
[dim=37] time: 0.388215
[dim=36] time: 0.452885
[dim=35] time: 0.527125
[dim=34] time: 0.593357
[dim=33] time: 0.645106
[dim=32] time: 0.696077
[dim=31] time: 0.739105
[dim=30] time: 0.816747
[dim=29] time: 0.849835
[dim=28] time: 0.883287
[dim=27] time: 0.913776
[dim=26] time: 0.964532
[dim=25] time: 1.00805
[dim=24] time: 1.04193
[dim=23] time: 1.0722
[dim=22] time: 1.09764
[dim=21] Time of backward = 1.122sec.
AIC: 509.821
k: 22
